benchmark/results/graph__10-1000-0.10-02_14/error_log/graph__10-1000-0.10-02_14_Quinton_Benders_master_ERRORLOG.lp
\ This file has been generated by DOcplex
\ ENCODING=ISO-8859-1
\Problem name: Quinton Benders_master

Maximize
 obj: z
Subject To
 c1: m_a0_proc_0 + m_a0_proc_1 = 1
 c2: m_a1_proc_0 + m_a1_proc_1 = 1
 c3: m_a2_proc_1 = 1
 c4: m_a3_proc_0 + m_a3_proc_1 = 1
 c5: m_a4_proc_0 = 1
 c6: m_a5_proc_0 = 1
 c7: m_a6_proc_0 + m_a6_proc_1 = 1
 c8: m_a7_proc_0 + m_a7_proc_1 = 1
 c9: m_a8_proc_0 + m_a8_proc_1 = 1
 c10: m_a9_proc_0 + m_a9_proc_1 = 1
 c11: K_a0_a1 + K_a1_a0 = 1
 c12: K_a0_a1 + K_a1_a0 = 1
 c13: K_a0_a2 + K_a2_a0 = 1
 c14: K_a0_a2 + K_a2_a0 = 1
 c15: K_a0_a3 + K_a3_a0 = 1
 c16: K_a0_a3 + K_a3_a0 = 1
 c17: K_a0_a4 + K_a4_a0 = 1
 c18: K_a0_a4 + K_a4_a0 = 1
 c19: K_a0_a5 + K_a5_a0 = 1
 c20: K_a0_a5 + K_a5_a0 = 1
 c21: K_a0_a6 + K_a6_a0 = 1
 c22: K_a0_a6 + K_a6_a0 = 1
 c23: K_a0_a7 + K_a7_a0 = 1
 c24: K_a0_a7 + K_a7_a0 = 1
 c25: K_a0_a8 + K_a8_a0 = 1
 c26: K_a0_a8 + K_a8_a0 = 1
 c27: K_a0_a9 + K_a9_a0 = 1
 c28: K_a0_a9 + K_a9_a0 = 1
 c29: K_a1_a2 + K_a2_a1 = 1
 c30: K_a1_a2 + K_a2_a1 = 1
 c31: K_a1_a3 + K_a3_a1 = 1
 c32: K_a1_a3 + K_a3_a1 = 1
 c33: K_a1_a4 + K_a4_a1 = 1
 c34: K_a1_a4 + K_a4_a1 = 1
 c35: K_a1_a5 + K_a5_a1 = 1
 c36: K_a1_a5 + K_a5_a1 = 1
 c37: K_a1_a6 + K_a6_a1 = 1
 c38: K_a1_a6 + K_a6_a1 = 1
 c39: K_a1_a7 + K_a7_a1 = 1
 c40: K_a1_a7 + K_a7_a1 = 1
 c41: K_a1_a8 + K_a8_a1 = 1
 c42: K_a1_a8 + K_a8_a1 = 1
 c43: K_a1_a9 + K_a9_a1 = 1
 c44: K_a1_a9 + K_a9_a1 = 1
 c45: K_a2_a3 + K_a3_a2 = 1
 c46: K_a2_a3 + K_a3_a2 = 1
 c47: K_a2_a6 + K_a6_a2 = 1
 c48: K_a2_a6 + K_a6_a2 = 1
 c49: K_a2_a7 + K_a7_a2 = 1
 c50: K_a2_a7 + K_a7_a2 = 1
 c51: K_a2_a8 + K_a8_a2 = 1
 c52: K_a2_a8 + K_a8_a2 = 1
 c53: K_a2_a9 + K_a9_a2 = 1
 c54: K_a2_a9 + K_a9_a2 = 1
 c55: K_a3_a4 + K_a4_a3 = 1
 c56: K_a3_a4 + K_a4_a3 = 1
 c57: K_a3_a5 + K_a5_a3 = 1
 c58: K_a3_a5 + K_a5_a3 = 1
 c59: K_a3_a6 + K_a6_a3 = 1
 c60: K_a3_a6 + K_a6_a3 = 1
 c61: K_a3_a7 + K_a7_a3 = 1
 c62: K_a3_a7 + K_a7_a3 = 1
 c63: K_a3_a8 + K_a8_a3 = 1
 c64: K_a3_a8 + K_a8_a3 = 1
 c65: K_a3_a9 + K_a9_a3 = 1
 c66: K_a3_a9 + K_a9_a3 = 1
 c67: K_a4_a5 + K_a5_a4 = 1
 c68: K_a4_a5 + K_a5_a4 = 1
 c69: K_a4_a6 + K_a6_a4 = 1
 c70: K_a4_a6 + K_a6_a4 = 1
 c71: K_a4_a7 + K_a7_a4 = 1
 c72: K_a4_a7 + K_a7_a4 = 1
 c73: K_a4_a8 + K_a8_a4 = 1
 c74: K_a4_a8 + K_a8_a4 = 1
 c75: K_a4_a9 + K_a9_a4 = 1
 c76: K_a4_a9 + K_a9_a4 = 1
 c77: K_a5_a6 + K_a6_a5 = 1
 c78: K_a5_a6 + K_a6_a5 = 1
 c79: K_a5_a7 + K_a7_a5 = 1
 c80: K_a5_a7 + K_a7_a5 = 1
 c81: K_a5_a8 + K_a8_a5 = 1
 c82: K_a5_a8 + K_a8_a5 = 1
 c83: K_a5_a9 + K_a9_a5 = 1
 c84: K_a5_a9 + K_a9_a5 = 1
 c85: K_a6_a7 + K_a7_a6 = 1
 c86: K_a6_a7 + K_a7_a6 = 1
 c87: K_a6_a8 + K_a8_a6 = 1
 c88: K_a6_a8 + K_a8_a6 = 1
 c89: K_a6_a9 + K_a9_a6 = 1
 c90: K_a6_a9 + K_a9_a6 = 1
 c91: K_a7_a8 + K_a8_a7 = 1
 c92: K_a7_a8 + K_a8_a7 = 1
 c93: K_a7_a9 + K_a9_a7 = 1
 c94: K_a7_a9 + K_a9_a7 = 1
 c95: K_a8_a9 + K_a9_a8 = 1
 c96: K_a8_a9 + K_a9_a8 = 1
 c97: z <= 99999999989999992832
 c98: - 1295 m_a0_proc_0 + w_a5 - w_a0 >= -1294.874802371542
 c99: - 1295 m_a0_proc_0 + w_a3 - w_a0 >= -1295.874802371542
 c100: K_a0_a1 - 1295 m_a0_proc_0 - 1295 m_a1_proc_0 + w_a1 - w_a0 >= 
       -2589.874802371542
 c101: K_a0_a3 - 1295 m_a0_proc_0 - 1295 m_a3_proc_0 + w_a3 - w_a0 >= 
       -2589.874802371542
 c102: K_a0_a4 - 1295 m_a0_proc_0 - 1295 m_a4_proc_0 + w_a4 - w_a0 >= 
       -2589.874802371542
 c103: K_a0_a5 - 1295 m_a0_proc_0 - 1295 m_a5_proc_0 + w_a5 - w_a0 >= 
       -2589.874802371542
 c104: K_a0_a6 - 1295 m_a0_proc_0 - 1295 m_a6_proc_0 + w_a6 - w_a0 >= 
       -2589.874802371542
 c105: K_a0_a7 - 1295 m_a0_proc_0 - 1295 m_a7_proc_0 + w_a7 - w_a0 >= 
       -2589.874802371542
 c106: K_a0_a8 - 1295 m_a0_proc_0 - 1295 m_a8_proc_0 + w_a8 - w_a0 >= 
       -2589.874802371542
 c107: K_a0_a9 - 1295 m_a0_proc_0 - 1295 m_a9_proc_0 + w_a9 - w_a0 >= 
       -2589.874802371542
 c108: - 1295 m_a0_proc_1 + w_a5 - w_a0 >= -1294.905632411067
 c109: - 1295 m_a0_proc_1 + w_a3 - w_a0 >= -1295.905632411067
 c110: K_a0_a1 - 1295 m_a0_proc_1 - 1295 m_a1_proc_1 + w_a1 - w_a0 >= 
       -2589.905632411067
 c111: K_a0_a2 - 1295 m_a0_proc_1 - 1295 m_a2_proc_1 + w_a2 - w_a0 >= 
       -2589.905632411067
 c112: K_a0_a3 - 1295 m_a0_proc_1 - 1295 m_a3_proc_1 + w_a3 - w_a0 >= 
       -2589.905632411067
 c113: K_a0_a6 - 1295 m_a0_proc_1 - 1295 m_a6_proc_1 + w_a6 - w_a0 >= 
       -2589.905632411067
 c114: K_a0_a7 - 1295 m_a0_proc_1 - 1295 m_a7_proc_1 + w_a7 - w_a0 >= 
       -2589.905632411067
 c115: K_a0_a8 - 1295 m_a0_proc_1 - 1295 m_a8_proc_1 + w_a8 - w_a0 >= 
       -2589.905632411067
 c116: K_a0_a9 - 1295 m_a0_proc_1 - 1295 m_a9_proc_1 + w_a9 - w_a0 >= 
       -2589.905632411067
 c117: - 1295 m_a1_proc_0 + w_a0 - w_a1 >= -1294.911264822134
 c118: K_a1_a0 - 1295 m_a0_proc_0 - 1295 m_a1_proc_0 + w_a0 - w_a1 >= 
       -2589.911264822134
 c119: K_a1_a3 - 1295 m_a1_proc_0 - 1295 m_a3_proc_0 + w_a3 - w_a1 >= 
       -2589.911264822134
 c120: K_a1_a4 - 1295 m_a1_proc_0 - 1295 m_a4_proc_0 + w_a4 - w_a1 >= 
       -2589.911264822134
 c121: K_a1_a5 - 1295 m_a1_proc_0 - 1295 m_a5_proc_0 + w_a5 - w_a1 >= 
       -2589.911264822134
 c122: K_a1_a6 - 1295 m_a1_proc_0 - 1295 m_a6_proc_0 + w_a6 - w_a1 >= 
       -2589.911264822134
 c123: K_a1_a7 - 1295 m_a1_proc_0 - 1295 m_a7_proc_0 + w_a7 - w_a1 >= 
       -2589.911264822134
 c124: K_a1_a8 - 1295 m_a1_proc_0 - 1295 m_a8_proc_0 + w_a8 - w_a1 >= 
       -2589.911264822134
 c125: K_a1_a9 - 1295 m_a1_proc_0 - 1295 m_a9_proc_0 + w_a9 - w_a1 >= 
       -2589.911264822134
 c126: - 1295 m_a1_proc_1 + w_a0 - w_a1 >= -1294.925197628459
 c127: K_a1_a0 - 1295 m_a0_proc_1 - 1295 m_a1_proc_1 + w_a0 - w_a1 >= 
       -2589.925197628459
 c128: K_a1_a2 - 1295 m_a1_proc_1 - 1295 m_a2_proc_1 + w_a2 - w_a1 >= 
       -2589.925197628459
 c129: K_a1_a3 - 1295 m_a1_proc_1 - 1295 m_a3_proc_1 + w_a3 - w_a1 >= 
       -2589.925197628459
 c130: K_a1_a6 - 1295 m_a1_proc_1 - 1295 m_a6_proc_1 + w_a6 - w_a1 >= 
       -2589.925197628459
 c131: K_a1_a7 - 1295 m_a1_proc_1 - 1295 m_a7_proc_1 + w_a7 - w_a1 >= 
       -2589.925197628459
 c132: K_a1_a8 - 1295 m_a1_proc_1 - 1295 m_a8_proc_1 + w_a8 - w_a1 >= 
       -2589.925197628459
 c133: K_a1_a9 - 1295 m_a1_proc_1 - 1295 m_a9_proc_1 + w_a9 - w_a1 >= 
       -2589.925197628459
 c134: - 1295 m_a2_proc_1 + w_a1 - w_a2 >= -1294.914822134387
 c135: - 1295 m_a2_proc_1 + w_a8 - w_a2 >= -1295.914822134387
 c136: K_a2_a0 - 1295 m_a0_proc_1 - 1295 m_a2_proc_1 + w_a0 - w_a2 >= 
       -2589.914822134388
 c137: K_a2_a1 - 1295 m_a1_proc_1 - 1295 m_a2_proc_1 + w_a1 - w_a2 >= 
       -2589.914822134388
 c138: K_a2_a3 - 1295 m_a2_proc_1 - 1295 m_a3_proc_1 + w_a3 - w_a2 >= 
       -2589.914822134388
 c139: K_a2_a6 - 1295 m_a2_proc_1 - 1295 m_a6_proc_1 + w_a6 - w_a2 >= 
       -2589.914822134388
 c140: K_a2_a7 - 1295 m_a2_proc_1 - 1295 m_a7_proc_1 + w_a7 - w_a2 >= 
       -2589.914822134388
 c141: K_a2_a8 - 1295 m_a2_proc_1 - 1295 m_a8_proc_1 + w_a8 - w_a2 >= 
       -2589.914822134388
 c142: K_a2_a9 - 1295 m_a2_proc_1 - 1295 m_a9_proc_1 + w_a9 - w_a2 >= 
       -2589.914822134388
 c143: - 1295 m_a3_proc_0 + w_a2 - w_a3 >= -1294.934486166008
 c144: - 1295 m_a3_proc_0 + w_a7 - w_a3 >= -1294.934486166008
 c145: K_a3_a0 - 1295 m_a0_proc_0 - 1295 m_a3_proc_0 + w_a0 - w_a3 >= 
       -2589.934486166008
 c146: K_a3_a1 - 1295 m_a1_proc_0 - 1295 m_a3_proc_0 + w_a1 - w_a3 >= 
       -2589.934486166008
 c147: K_a3_a4 - 1295 m_a3_proc_0 - 1295 m_a4_proc_0 + w_a4 - w_a3 >= 
       -2589.934486166008
 c148: K_a3_a5 - 1295 m_a3_proc_0 - 1295 m_a5_proc_0 + w_a5 - w_a3 >= 
       -2589.934486166008
 c149: K_a3_a6 - 1295 m_a3_proc_0 - 1295 m_a6_proc_0 + w_a6 - w_a3 >= 
       -2589.934486166008
 c150: K_a3_a7 - 1295 m_a3_proc_0 - 1295 m_a7_proc_0 + w_a7 - w_a3 >= 
       -2589.934486166008
 c151: K_a3_a8 - 1295 m_a3_proc_0 - 1295 m_a8_proc_0 + w_a8 - w_a3 >= 
       -2589.934486166008
 c152: K_a3_a9 - 1295 m_a3_proc_0 - 1295 m_a9_proc_0 + w_a9 - w_a3 >= 
       -2589.934486166008
 c153: - 1295 m_a3_proc_1 + w_a2 - w_a3 >= -1294.897035573123
 c154: - 1295 m_a3_proc_1 + w_a7 - w_a3 >= -1294.897035573123
 c155: K_a3_a0 - 1295 m_a0_proc_1 - 1295 m_a3_proc_1 + w_a0 - w_a3 >= 
       -2589.897035573123
 c156: K_a3_a1 - 1295 m_a1_proc_1 - 1295 m_a3_proc_1 + w_a1 - w_a3 >= 
       -2589.897035573123
 c157: K_a3_a2 - 1295 m_a2_proc_1 - 1295 m_a3_proc_1 + w_a2 - w_a3 >= 
       -2589.897035573123
 c158: K_a3_a6 - 1295 m_a3_proc_1 - 1295 m_a6_proc_1 + w_a6 - w_a3 >= 
       -2589.897035573123
 c159: K_a3_a7 - 1295 m_a3_proc_1 - 1295 m_a7_proc_1 + w_a7 - w_a3 >= 
       -2589.897035573123
 c160: K_a3_a8 - 1295 m_a3_proc_1 - 1295 m_a8_proc_1 + w_a8 - w_a3 >= 
       -2589.897035573123
 c161: K_a3_a9 - 1295 m_a3_proc_1 - 1295 m_a9_proc_1 + w_a9 - w_a3 >= 
       -2589.897035573123
 c162: - 1295 m_a4_proc_0 + w_a2 - w_a4 >= -1294.899407114624
 c163: K_a4_a0 - 1295 m_a0_proc_0 - 1295 m_a4_proc_0 + w_a0 - w_a4 >= 
       -2589.899407114624
 c164: K_a4_a1 - 1295 m_a1_proc_0 - 1295 m_a4_proc_0 + w_a1 - w_a4 >= 
       -2589.899407114624
 c165: K_a4_a3 - 1295 m_a3_proc_0 - 1295 m_a4_proc_0 + w_a3 - w_a4 >= 
       -2589.899407114624
 c166: K_a4_a5 - 1295 m_a4_proc_0 - 1295 m_a5_proc_0 + w_a5 - w_a4 >= 
       -2589.899407114624
 c167: K_a4_a6 - 1295 m_a4_proc_0 - 1295 m_a6_proc_0 + w_a6 - w_a4 >= 
       -2589.899407114624
 c168: K_a4_a7 - 1295 m_a4_proc_0 - 1295 m_a7_proc_0 + w_a7 - w_a4 >= 
       -2589.899407114624
 c169: K_a4_a8 - 1295 m_a4_proc_0 - 1295 m_a8_proc_0 + w_a8 - w_a4 >= 
       -2589.899407114624
 c170: K_a4_a9 - 1295 m_a4_proc_0 - 1295 m_a9_proc_0 + w_a9 - w_a4 >= 
       -2589.899407114624
 c171: - 1295 m_a5_proc_0 + w_a7 - w_a5 >= -1294.958003952569
 c172: - 1295 m_a5_proc_0 + w_a2 - w_a5 >= -1295.958003952569
 c173: K_a5_a0 - 1295 m_a0_proc_0 - 1295 m_a5_proc_0 + w_a0 - w_a5 >= 
       -2589.958003952569
 c174: K_a5_a1 - 1295 m_a1_proc_0 - 1295 m_a5_proc_0 + w_a1 - w_a5 >= 
       -2589.958003952569
 c175: K_a5_a3 - 1295 m_a3_proc_0 - 1295 m_a5_proc_0 + w_a3 - w_a5 >= 
       -2589.958003952569
 c176: K_a5_a4 - 1295 m_a4_proc_0 - 1295 m_a5_proc_0 + w_a4 - w_a5 >= 
       -2589.958003952569
 c177: K_a5_a6 - 1295 m_a5_proc_0 - 1295 m_a6_proc_0 + w_a6 - w_a5 >= 
       -2589.958003952569
 c178: K_a5_a7 - 1295 m_a5_proc_0 - 1295 m_a7_proc_0 + w_a7 - w_a5 >= 
       -2589.958003952569
 c179: K_a5_a8 - 1295 m_a5_proc_0 - 1295 m_a8_proc_0 + w_a8 - w_a5 >= 
       -2589.958003952569
 c180: K_a5_a9 - 1295 m_a5_proc_0 - 1295 m_a9_proc_0 + w_a9 - w_a5 >= 
       -2589.958003952569
 c181: - 1295 m_a6_proc_0 + w_a5 - w_a6 >= -1294.872035573123
 c182: - 1295 m_a6_proc_0 + w_a8 - w_a6 >= -1294.872035573123
 c183: - 1295 m_a6_proc_0 + w_a4 - w_a6 >= -1294.872035573123
 c184: K_a6_a0 - 1295 m_a0_proc_0 - 1295 m_a6_proc_0 + w_a0 - w_a6 >= 
       -2589.872035573123
 c185: K_a6_a1 - 1295 m_a1_proc_0 - 1295 m_a6_proc_0 + w_a1 - w_a6 >= 
       -2589.872035573123
 c186: K_a6_a3 - 1295 m_a3_proc_0 - 1295 m_a6_proc_0 + w_a3 - w_a6 >= 
       -2589.872035573123
 c187: K_a6_a4 - 1295 m_a4_proc_0 - 1295 m_a6_proc_0 + w_a4 - w_a6 >= 
       -2589.872035573123
 c188: K_a6_a5 - 1295 m_a5_proc_0 - 1295 m_a6_proc_0 + w_a5 - w_a6 >= 
       -2589.872035573123
 c189: K_a6_a7 - 1295 m_a6_proc_0 - 1295 m_a7_proc_0 + w_a7 - w_a6 >= 
       -2589.872035573123
 c190: K_a6_a8 - 1295 m_a6_proc_0 - 1295 m_a8_proc_0 + w_a8 - w_a6 >= 
       -2589.872035573123
 c191: K_a6_a9 - 1295 m_a6_proc_0 - 1295 m_a9_proc_0 + w_a9 - w_a6 >= 
       -2589.872035573123
 c192: - 1295 m_a6_proc_1 + w_a5 - w_a6 >= -1294.908695652174
 c193: - 1295 m_a6_proc_1 + w_a8 - w_a6 >= -1294.908695652174
 c194: - 1295 m_a6_proc_1 + w_a4 - w_a6 >= -1294.908695652174
 c195: K_a6_a0 - 1295 m_a0_proc_1 - 1295 m_a6_proc_1 + w_a0 - w_a6 >= 
       -2589.908695652174
 c196: K_a6_a1 - 1295 m_a1_proc_1 - 1295 m_a6_proc_1 + w_a1 - w_a6 >= 
       -2589.908695652174
 c197: K_a6_a2 - 1295 m_a2_proc_1 - 1295 m_a6_proc_1 + w_a2 - w_a6 >= 
       -2589.908695652174
 c198: K_a6_a3 - 1295 m_a3_proc_1 - 1295 m_a6_proc_1 + w_a3 - w_a6 >= 
       -2589.908695652174
 c199: K_a6_a7 - 1295 m_a6_proc_1 - 1295 m_a7_proc_1 + w_a7 - w_a6 >= 
       -2589.908695652174
 c200: K_a6_a8 - 1295 m_a6_proc_1 - 1295 m_a8_proc_1 + w_a8 - w_a6 >= 
       -2589.908695652174
 c201: K_a6_a9 - 1295 m_a6_proc_1 - 1295 m_a9_proc_1 + w_a9 - w_a6 >= 
       -2589.908695652174
 c202: - 1295 m_a7_proc_0 + w_a3 - w_a7 >= -1295.914624505929
 c203: - 1295 m_a7_proc_0 + w_a8 - w_a7 >= -1295.914624505929
 c204: K_a7_a0 - 1295 m_a0_proc_0 - 1295 m_a7_proc_0 + w_a0 - w_a7 >= 
       -2589.914624505929
 c205: K_a7_a1 - 1295 m_a1_proc_0 - 1295 m_a7_proc_0 + w_a1 - w_a7 >= 
       -2589.914624505929
 c206: K_a7_a3 - 1295 m_a3_proc_0 - 1295 m_a7_proc_0 + w_a3 - w_a7 >= 
       -2589.914624505929
 c207: K_a7_a4 - 1295 m_a4_proc_0 - 1295 m_a7_proc_0 + w_a4 - w_a7 >= 
       -2589.914624505929
 c208: K_a7_a5 - 1295 m_a5_proc_0 - 1295 m_a7_proc_0 + w_a5 - w_a7 >= 
       -2589.914624505929
 c209: K_a7_a6 - 1295 m_a6_proc_0 - 1295 m_a7_proc_0 + w_a6 - w_a7 >= 
       -2589.914624505929
 c210: K_a7_a8 - 1295 m_a7_proc_0 - 1295 m_a8_proc_0 + w_a8 - w_a7 >= 
       -2589.914624505929
 c211: K_a7_a9 - 1295 m_a7_proc_0 - 1295 m_a9_proc_0 + w_a9 - w_a7 >= 
       -2589.914624505929
 c212: - 1295 m_a7_proc_1 + w_a3 - w_a7 >= -1295.922430830040
 c213: - 1295 m_a7_proc_1 + w_a8 - w_a7 >= -1295.922430830040
 c214: K_a7_a0 - 1295 m_a0_proc_1 - 1295 m_a7_proc_1 + w_a0 - w_a7 >= 
       -2589.922430830040
 c215: K_a7_a1 - 1295 m_a1_proc_1 - 1295 m_a7_proc_1 + w_a1 - w_a7 >= 
       -2589.922430830040
 c216: K_a7_a2 - 1295 m_a2_proc_1 - 1295 m_a7_proc_1 + w_a2 - w_a7 >= 
       -2589.922430830040
 c217: K_a7_a3 - 1295 m_a3_proc_1 - 1295 m_a7_proc_1 + w_a3 - w_a7 >= 
       -2589.922430830040
 c218: K_a7_a6 - 1295 m_a6_proc_1 - 1295 m_a7_proc_1 + w_a6 - w_a7 >= 
       -2589.922430830040
 c219: K_a7_a8 - 1295 m_a7_proc_1 - 1295 m_a8_proc_1 + w_a8 - w_a7 >= 
       -2589.922430830040
 c220: K_a7_a9 - 1295 m_a7_proc_1 - 1295 m_a9_proc_1 + w_a9 - w_a7 >= 
       -2589.922430830040
 c221: - 1295 m_a8_proc_0 + w_a9 - w_a8 >= -1294.929249011858
 c222: - 1295 m_a8_proc_0 + w_a4 - w_a8 >= -1294.929249011858
 c223: K_a8_a0 - 1295 m_a0_proc_0 - 1295 m_a8_proc_0 + w_a0 - w_a8 >= 
       -2589.929249011858
 c224: K_a8_a1 - 1295 m_a1_proc_0 - 1295 m_a8_proc_0 + w_a1 - w_a8 >= 
       -2589.929249011858
 c225: K_a8_a3 - 1295 m_a3_proc_0 - 1295 m_a8_proc_0 + w_a3 - w_a8 >= 
       -2589.929249011858
 c226: K_a8_a4 - 1295 m_a4_proc_0 - 1295 m_a8_proc_0 + w_a4 - w_a8 >= 
       -2589.929249011858
 c227: K_a8_a5 - 1295 m_a5_proc_0 - 1295 m_a8_proc_0 + w_a5 - w_a8 >= 
       -2589.929249011858
 c228: K_a8_a6 - 1295 m_a6_proc_0 - 1295 m_a8_proc_0 + w_a6 - w_a8 >= 
       -2589.929249011858
 c229: K_a8_a7 - 1295 m_a7_proc_0 - 1295 m_a8_proc_0 + w_a7 - w_a8 >= 
       -2589.929249011858
 c230: K_a8_a9 - 1295 m_a8_proc_0 - 1295 m_a9_proc_0 + w_a9 - w_a8 >= 
       -2589.929249011858
 c231: - 1295 m_a8_proc_1 + w_a9 - w_a8 >= -1294.877964426877
 c232: - 1295 m_a8_proc_1 + w_a4 - w_a8 >= -1294.877964426877
 c233: K_a8_a0 - 1295 m_a0_proc_1 - 1295 m_a8_proc_1 + w_a0 - w_a8 >= 
       -2589.877964426877
 c234: K_a8_a1 - 1295 m_a1_proc_1 - 1295 m_a8_proc_1 + w_a1 - w_a8 >= 
       -2589.877964426877
 c235: K_a8_a2 - 1295 m_a2_proc_1 - 1295 m_a8_proc_1 + w_a2 - w_a8 >= 
       -2589.877964426877
 c236: K_a8_a3 - 1295 m_a3_proc_1 - 1295 m_a8_proc_1 + w_a3 - w_a8 >= 
       -2589.877964426877
 c237: K_a8_a6 - 1295 m_a6_proc_1 - 1295 m_a8_proc_1 + w_a6 - w_a8 >= 
       -2589.877964426877
 c238: K_a8_a7 - 1295 m_a7_proc_1 - 1295 m_a8_proc_1 + w_a7 - w_a8 >= 
       -2589.877964426877
 c239: K_a8_a9 - 1295 m_a8_proc_1 - 1295 m_a9_proc_1 + w_a9 - w_a8 >= 
       -2589.877964426877
 c240: - 1295 m_a9_proc_0 >= -1295.925494071146
 c241: K_a9_a0 - 1295 m_a0_proc_0 - 1295 m_a9_proc_0 + w_a0 - w_a9 >= 
       -2589.925494071146
 c242: K_a9_a1 - 1295 m_a1_proc_0 - 1295 m_a9_proc_0 + w_a1 - w_a9 >= 
       -2589.925494071146
 c243: K_a9_a3 - 1295 m_a3_proc_0 - 1295 m_a9_proc_0 + w_a3 - w_a9 >= 
       -2589.925494071146
 c244: K_a9_a4 - 1295 m_a4_proc_0 - 1295 m_a9_proc_0 + w_a4 - w_a9 >= 
       -2589.925494071146
 c245: K_a9_a5 - 1295 m_a5_proc_0 - 1295 m_a9_proc_0 + w_a5 - w_a9 >= 
       -2589.925494071146
 c246: K_a9_a6 - 1295 m_a6_proc_0 - 1295 m_a9_proc_0 + w_a6 - w_a9 >= 
       -2589.925494071146
 c247: K_a9_a7 - 1295 m_a7_proc_0 - 1295 m_a9_proc_0 + w_a7 - w_a9 >= 
       -2589.925494071146
 c248: K_a9_a8 - 1295 m_a8_proc_0 - 1295 m_a9_proc_0 + w_a8 - w_a9 >= 
       -2589.925494071146
 c249: - 1295 m_a9_proc_1 >= -1295.880039525692
 c250: K_a9_a0 - 1295 m_a0_proc_1 - 1295 m_a9_proc_1 + w_a0 - w_a9 >= 
       -2589.880039525692
 c251: K_a9_a1 - 1295 m_a1_proc_1 - 1295 m_a9_proc_1 + w_a1 - w_a9 >= 
       -2589.880039525692
 c252: K_a9_a2 - 1295 m_a2_proc_1 - 1295 m_a9_proc_1 + w_a2 - w_a9 >= 
       -2589.880039525692
 c253: K_a9_a3 - 1295 m_a3_proc_1 - 1295 m_a9_proc_1 + w_a3 - w_a9 >= 
       -2589.880039525692
 c254: K_a9_a6 - 1295 m_a6_proc_1 - 1295 m_a9_proc_1 + w_a6 - w_a9 >= 
       -2589.880039525692
 c255: K_a9_a7 - 1295 m_a7_proc_1 - 1295 m_a9_proc_1 + w_a7 - w_a9 >= 
       -2589.880039525692
 c256: K_a9_a8 - 1295 m_a8_proc_1 - 1295 m_a9_proc_1 + w_a8 - w_a9 >= 
       -2589.880039525692
 c257: z - 0.000119360229 K_a4_a3 - 0.000119360229 K_a7_a6
       - 0.000119360229 K_a9_a4 + 0.154571496777 m_a3_proc_0
       + 0.309142993555 m_a4_proc_0 + 0.154571496777 m_a6_proc_1
       - 0.093697779900 m_a7_proc_0 + 0.154571496777 m_a7_proc_1
       - 0.061947958940 m_a8_proc_0 + 0.154571496777 m_a9_proc_0
       - 0.089997612795 m_a9_proc_1 <= 0.927428980664

Bounds
 -inf <= K_a0_a1 <= 1000000000
 -inf <= K_a0_a2 <= 1000000000
 -inf <= K_a0_a3 <= 1000000000
 -inf <= K_a0_a4 <= 1000000000
 -inf <= K_a0_a5 <= 1000000000
 -inf <= K_a0_a6 <= 1000000000
 -inf <= K_a0_a7 <= 1000000000
 -inf <= K_a0_a8 <= 1000000000
 -inf <= K_a0_a9 <= 1000000000
 -inf <= K_a1_a0 <= 1000000000
 -inf <= K_a1_a2 <= 1000000000
 -inf <= K_a1_a3 <= 1000000000
 -inf <= K_a1_a4 <= 1000000000
 -inf <= K_a1_a5 <= 1000000000
 -inf <= K_a1_a6 <= 1000000000
 -inf <= K_a1_a7 <= 1000000000
 -inf <= K_a1_a8 <= 1000000000
 -inf <= K_a1_a9 <= 1000000000
 -inf <= K_a2_a0 <= 1000000000
 -inf <= K_a2_a1 <= 1000000000
 -inf <= K_a2_a3 <= 1000000000
 -inf <= K_a2_a4 <= 1000000000
 -inf <= K_a2_a5 <= 1000000000
 -inf <= K_a2_a6 <= 1000000000
 -inf <= K_a2_a7 <= 1000000000
 -inf <= K_a2_a8 <= 1000000000
 -inf <= K_a2_a9 <= 1000000000
 -inf <= K_a3_a0 <= 1000000000
 -inf <= K_a3_a1 <= 1000000000
 -inf <= K_a3_a2 <= 1000000000
 -inf <= K_a3_a4 <= 1000000000
 -inf <= K_a3_a5 <= 1000000000
 -inf <= K_a3_a6 <= 1000000000
 -inf <= K_a3_a7 <= 1000000000
 -inf <= K_a3_a8 <= 1000000000
 -inf <= K_a3_a9 <= 1000000000
 -inf <= K_a4_a0 <= 1000000000
 -inf <= K_a4_a1 <= 1000000000
 -inf <= K_a4_a2 <= 1000000000
 -inf <= K_a4_a3 <= 1000000000
 -inf <= K_a4_a5 <= 1000000000
 -inf <= K_a4_a6 <= 1000000000
 -inf <= K_a4_a7 <= 1000000000
 -inf <= K_a4_a8 <= 1000000000
 -inf <= K_a4_a9 <= 1000000000
 -inf <= K_a5_a0 <= 1000000000
 -inf <= K_a5_a1 <= 1000000000
 -inf <= K_a5_a2 <= 1000000000
 -inf <= K_a5_a3 <= 1000000000
 -inf <= K_a5_a4 <= 1000000000
 -inf <= K_a5_a6 <= 1000000000
 -inf <= K_a5_a7 <= 1000000000
 -inf <= K_a5_a8 <= 1000000000
 -inf <= K_a5_a9 <= 1000000000
 -inf <= K_a6_a0 <= 1000000000
 -inf <= K_a6_a1 <= 1000000000
 -inf <= K_a6_a2 <= 1000000000
 -inf <= K_a6_a3 <= 1000000000
 -inf <= K_a6_a4 <= 1000000000
 -inf <= K_a6_a5 <= 1000000000
 -inf <= K_a6_a7 <= 1000000000
 -inf <= K_a6_a8 <= 1000000000
 -inf <= K_a6_a9 <= 1000000000
 -inf <= K_a7_a0 <= 1000000000
 -inf <= K_a7_a1 <= 1000000000
 -inf <= K_a7_a2 <= 1000000000
 -inf <= K_a7_a3 <= 1000000000
 -inf <= K_a7_a4 <= 1000000000
 -inf <= K_a7_a5 <= 1000000000
 -inf <= K_a7_a6 <= 1000000000
 -inf <= K_a7_a8 <= 1000000000
 -inf <= K_a7_a9 <= 1000000000
 -inf <= K_a8_a0 <= 1000000000
 -inf <= K_a8_a1 <= 1000000000
 -inf <= K_a8_a2 <= 1000000000
 -inf <= K_a8_a3 <= 1000000000
 -inf <= K_a8_a4 <= 1000000000
 -inf <= K_a8_a5 <= 1000000000
 -inf <= K_a8_a6 <= 1000000000
 -inf <= K_a8_a7 <= 1000000000
 -inf <= K_a8_a9 <= 1000000000
 -inf <= K_a9_a0 <= 1000000000
 -inf <= K_a9_a1 <= 1000000000
 -inf <= K_a9_a2 <= 1000000000
 -inf <= K_a9_a3 <= 1000000000
 -inf <= K_a9_a4 <= 1000000000
 -inf <= K_a9_a5 <= 1000000000
 -inf <= K_a9_a6 <= 1000000000
 -inf <= K_a9_a7 <= 1000000000
 -inf <= K_a9_a8 <= 1000000000
 0 <= m_a0_proc_0 <= 1
 0 <= m_a0_proc_1 <= 1
 0 <= m_a1_proc_0 <= 1
 0 <= m_a1_proc_1 <= 1
 0 <= m_a2_proc_1 <= 1
 0 <= m_a3_proc_0 <= 1
 0 <= m_a3_proc_1 <= 1
 0 <= m_a4_proc_0 <= 1
 0 <= m_a5_proc_0 <= 1
 0 <= m_a6_proc_0 <= 1
 0 <= m_a6_proc_1 <= 1
 0 <= m_a7_proc_0 <= 1
 0 <= m_a7_proc_1 <= 1
 0 <= m_a8_proc_0 <= 1
 0 <= m_a8_proc_1 <= 1
 0 <= m_a9_proc_0 <= 1
 0 <= m_a9_proc_1 <= 1

Binaries
 m_a0_proc_0 m_a0_proc_1 m_a1_proc_0 m_a1_proc_1 m_a2_proc_1 m_a3_proc_0
 m_a3_proc_1 m_a4_proc_0 m_a5_proc_0 m_a6_proc_0 m_a6_proc_1 m_a7_proc_0
 m_a7_proc_1 m_a8_proc_0 m_a8_proc_1 m_a9_proc_0 m_a9_proc_1

Generals
 K_a0_a1 K_a0_a2 K_a0_a3 K_a0_a4 K_a0_a5 K_a0_a6 K_a0_a7 K_a0_a8 K_a0_a9 K_a1_a0
 K_a1_a2 K_a1_a3 K_a1_a4 K_a1_a5 K_a1_a6 K_a1_a7 K_a1_a8 K_a1_a9 K_a2_a0 K_a2_a1
 K_a2_a3 K_a2_a4 K_a2_a5 K_a2_a6 K_a2_a7 K_a2_a8 K_a2_a9 K_a3_a0 K_a3_a1 K_a3_a2
 K_a3_a4 K_a3_a5 K_a3_a6 K_a3_a7 K_a3_a8 K_a3_a9 K_a4_a0 K_a4_a1 K_a4_a2 K_a4_a3
 K_a4_a5 K_a4_a6 K_a4_a7 K_a4_a8 K_a4_a9 K_a5_a0 K_a5_a1 K_a5_a2 K_a5_a3 K_a5_a4
 K_a5_a6 K_a5_a7 K_a5_a8 K_a5_a9 K_a6_a0 K_a6_a1 K_a6_a2 K_a6_a3 K_a6_a4 K_a6_a5
 K_a6_a7 K_a6_a8 K_a6_a9 K_a7_a0 K_a7_a1 K_a7_a2 K_a7_a3 K_a7_a4 K_a7_a5 K_a7_a6
 K_a7_a8 K_a7_a9 K_a8_a0 K_a8_a1 K_a8_a2 K_a8_a3 K_a8_a4 K_a8_a5 K_a8_a6 K_a8_a7
 K_a8_a9 K_a9_a0 K_a9_a1 K_a9_a2 K_a9_a3 K_a9_a4 K_a9_a5 K_a9_a6 K_a9_a7 K_a9_a8
End
