benchmark/results/graph__10-1000-0.10-02_14/error_log/graph__10-1000-0.10-02_14_Quinton_Benders_master_ERRORLOG.txt
solution for: Quinton Benders_master
objective: 119362
status: OPTIMAL_SOLUTION(2)
K_a0_a1=1
K_a0_a2=1296
K_a0_a3=1296
K_a0_a4=1
K_a0_a6=2593
K_a0_a8=1
K_a0_a9=-999997407
K_a1_a2=1296
K_a1_a3=1296
K_a1_a4=1
K_a1_a6=2593
K_a1_a8=1
K_a1_a9=-999997407
K_a2_a0=-1295
K_a2_a1=-1295
K_a2_a3=1
K_a2_a4=1000000000
K_a2_a5=1000000000
K_a2_a6=3888
K_a2_a7=1295
K_a2_a8=1296
K_a2_a9=-999998702
K_a3_a0=-1295
K_a3_a1=-1295
K_a3_a4=-1294
K_a3_a5=1295
K_a3_a6=3888
K_a3_a7=1295
K_a3_a8=1296
K_a3_a9=-999998702
K_a4_a2=1000000000
K_a4_a3=1295
K_a4_a6=2592
K_a4_a8=1
K_a4_a9=-999999998
K_a5_a0=1
K_a5_a1=1
K_a5_a2=1000000000
K_a5_a3=-1294
K_a5_a4=1
K_a5_a6=2593
K_a5_a8=1
K_a5_a9=-999997407
K_a6_a0=-2592
K_a6_a1=-2592
K_a6_a2=-3887
K_a6_a3=-3887
K_a6_a4=-2591
K_a6_a5=-2592
K_a6_a7=-2592
K_a6_a8=-2591
K_a6_a9=-999999999
K_a7_a0=1
K_a7_a1=1
K_a7_a2=-1294
K_a7_a3=-1294
K_a7_a4=1
K_a7_a5=1
K_a7_a6=2593
K_a7_a8=1
K_a7_a9=-999997407
K_a8_a2=-1295
K_a8_a3=-1295
K_a8_a6=2592
K_a8_a9=-999997408
K_a9_a0=999997408
K_a9_a1=999997408
K_a9_a2=999998703
K_a9_a3=999998703
K_a9_a4=999999999
K_a9_a5=999997408
K_a9_a6=1000000000
K_a9_a7=999997408
K_a9_a8=999997409
m_a0_proc_0=1
m_a1_proc_0=1
m_a2_proc_1=1
m_a3_proc_1=1
m_a4_proc_0=1
m_a5_proc_0=1
m_a6_proc_0=1
m_a7_proc_0=1
m_a8_proc_0=1
m_a9_proc_1=1
z=119361.557
w_a0=2592.405
w_a1=2592.316
w_a2=2592.231
w_a3=2592.128
w_a4=2591.779
w_a5=2592.581
w_a7=2592.623
w_a8=2591.709
w_a9=1000001294.880
